c turning on binary mode checking
c parsing input formula with 202048 variables and 780990 clauses
c finished parsing, read 2542569 bytes from proof file
c detected empty clause; start verification via backward checking
c 9863 of 780990 clauses in core                            
c 3337 of 97712 lemmas in core using 176334 resolution steps
c 0 RAT lemmas in core; 1373 redundant literals in core lemmas
s VERIFIED
c verification time: 1.166 seconds
